
  12   12
  10   10   10   10   10   10   10   10   10   10   10   10

   0   0   0   0   0   0   0   0   0   0   0   0   0   6 2 3 4 5 6 8 
   5   1   0   1   1   0   0   0   0   0   1   0   0   3 11 10 9 
   7   0   0   0   4   0   0   0   0   1   0   0   0   2 11 10 
   6   0   0   0   5   0   0   0   0   4   9   0   0   2 10 9 
   4   0   0   5   0   0   1   2   0   6   0   1   0   2 10 9 
   2   0   0   0   0   0   0   3   1   0   0   0   1   1 7 
   1   0   0   8   0   0   9   0   0   0   0   9   0   1 11 
   9   0   0   6   9   0   0   0   0   0   0   0   0   1 9 
   7   9   0   0   6   0   0   0   7   9   5   0   0   1 12
  10   0   0   0   0   5   0   0   7   5   0   0   9   1 12
   3   5   0   5   0   0   0  10   0   0   5   0   0   1 12
   0   0   0   0   0   0   0   0   0   0   0   0   0   0 
